p cnf 1210
-16 -380
-17 -383
-18 -386
-19 -389
-20 -392
-21 -395
-22 -398
-23 -401
-24 -404
-25 -407
-26 -410
-27 -413
-28 -416
-29 -419
-30 -422
-31 423
-32 424
-33 425
-34 426
-35 427
-36 428
-37 429
-38 430
-39 431
-40 432
-41 433
-42 434
-43 -17
-43 -18
17 18 43
-44 -19
-44 -20
19 20 44
-45 -21
-45 -22
21 22 45
-46 -23
-46 -24
23 24 46
-47 -25
-47 -26
25 26 47
-48 -27
-48 -28
27 28 48
-49 -29
-49 -30
29 30 49
-50 -31
-50 -32
31 32 50
-51 -33
-51 -34
33 34 51
-52 -35
-52 -36
35 36 52
-53 -37
-53 -38
37 38 53
-54 -39
-54 -40
39 40 54
-55 -41
-55 -42
41 42 55
-56 43
-56 44
-43 -44 56
-57 45
-57 46
-45 -46 57
-58 47
-58 48
-47 -48 58
-59 49
-59 50
-49 -50 59
-60 51
-60 52
-51 -52 60
-61 53
-61 54
-53 -54 61
-62 56
-62 57
-56 -57 62
-63 58
-63 59
-58 -59 63
-64 60
-64 61
-60 -61 64
-65 62
-65 63
-62 -63 65
-66 55
-66 64
-55 -64 66
-67 65
-67 66
-65 -66 67
-68 -16
-68 17
16 -17 68
-69 16
-69 -17
-16 17 69
-70 -68
-70 -69
68 69 70
-71 16
-71 17
-16 -17 71
-72 -16
-72 -70
16 70 72
-73 16
-73 70
-16 -70 73
-74 -72
-74 -73
72 73 74
-75 16
-75 -70
-16 70 75
-76 -71
-76 -75
71 75 76
-77 -17
-77 18
17 -18 77
-78 17
-78 -18
-17 18 78
-79 -77
-79 -78
77 78 79
-80 17
-80 18
-17 -18 80
-81 76
-81 -79
-76 79 81
-82 -76
-82 79
76 -79 82
-83 -81
-83 -82
81 82 83
-84 -76
-84 -79
76 79 84
-85 -80
-85 -84
80 84 85
-86 -18
-86 19
18 -19 86
-87 18
-87 -19
-18 19 87
-88 -86
-88 -87
86 87 88
-89 18
-89 19
-18 -19 89
-90 85
-90 -88
-85 88 90
-91 -85
-91 88
85 -88 91
-92 -90
-92 -91
90 91 92
-93 -85
-93 -88
85 88 93
-94 -89
-94 -93
89 93 94
-95 -19
-95 20
19 -20 95
-96 19
-96 -20
-19 20 96
-97 -95
-97 -96
95 96 97
-98 19
-98 20
-19 -20 98
-99 94
-99 -97
-94 97 99
-100 -94
-100 97
94 -97 100
-101 -99
-101 -100
99 100 101
-102 -94
-102 -97
94 97 102
-103 -98
-103 -102
98 102 103
-104 -20
-104 21
20 -21 104
-105 20
-105 -21
-20 21 105
-106 -104
-106 -105
104 105 106
-107 20
-107 21
-20 -21 107
-108 103
-108 -106
-103 106 108
-109 -103
-109 106
103 -106 109
-110 -108
-110 -109
108 109 110
-111 -103
-111 -106
103 106 111
-112 -107
-112 -111
107 111 112
-113 -21
-113 22
21 -22 113
-114 21
-114 -22
-21 22 114
-115 -113
-115 -114
113 114 115
-116 21
-116 22
-21 -22 116
-117 112
-117 -115
-112 115 117
-118 -112
-118 115
112 -115 118
-119 -117
-119 -118
117 118 119
-120 -112
-120 -115
112 115 120
-121 -116
-121 -120
116 120 121
-122 -22
-122 23
22 -23 122
-123 22
-123 -23
-22 23 123
-124 -122
-124 -123
122 123 124
-125 22
-125 23
-22 -23 125
-126 121
-126 -124
-121 124 126
-127 -121
-127 124
121 -124 127
-128 -126
-128 -127
126 127 128
-129 -121
-129 -124
121 124 129
-130 -125
-130 -129
125 129 130
-131 -23
-131 24
23 -24 131
-132 23
-132 -24
-23 24 132
-133 -131
-133 -132
131 132 133
-134 23
-134 24
-23 -24 134
-135 130
-135 -133
-130 133 135
-136 -130
-136 133
130 -133 136
-137 -135
-137 -136
135 136 137
-138 -130
-138 -133
130 133 138
-139 -134
-139 -138
134 138 139
-140 -24
-140 25
24 -25 140
-141 24
-141 -25
-24 25 141
-142 -140
-142 -141
140 141 142
-143 24
-143 25
-24 -25 143
-144 139
-144 -142
-139 142 144
-145 -139
-145 142
139 -142 145
-146 -144
-146 -145
144 145 146
-147 -139
-147 -142
139 142 147
-148 -143
-148 -147
143 147 148
-149 -25
-149 26
25 -26 149
-150 25
-150 -26
-25 26 150
-151 -149
-151 -150
149 150 151
-152 25
-152 26
-25 -26 152
-153 148
-153 -151
-148 151 153
-154 -148
-154 151
148 -151 154
-155 -153
-155 -154
153 154 155
-156 -148
-156 -151
148 151 156
-157 -152
-157 -156
152 156 157
-158 -26
-158 27
26 -27 158
-159 26
-159 -27
-26 27 159
-160 -158
-160 -159
158 159 160
-161 26
-161 27
-26 -27 161
-162 157
-162 -160
-157 160 162
-163 -157
-163 160
157 -160 163
-164 -162
-164 -163
162 163 164
-165 -157
-165 -160
157 160 165
-166 -161
-166 -165
161 165 166
-167 -27
-167 28
27 -28 167
-168 27
-168 -28
-27 28 168
-169 -167
-169 -168
167 168 169
-170 27
-170 28
-27 -28 170
-171 166
-171 -169
-166 169 171
-172 -166
-172 169
166 -169 172
-173 -171
-173 -172
171 172 173
-174 -166
-174 -169
166 169 174
-175 -170
-175 -174
170 174 175
-176 -28
-176 29
28 -29 176
-177 28
-177 -29
-28 29 177
-178 -176
-178 -177
176 177 178
-179 28
-179 29
-28 -29 179
-180 175
-180 -178
-175 178 180
-181 -175
-181 178
175 -178 181
-182 -180
-182 -181
180 181 182
-183 -175
-183 -178
175 178 183
-184 -179
-184 -183
179 183 184
-185 -29
-185 30
29 -30 185
-186 29
-186 -30
-29 30 186
-187 -185
-187 -186
185 186 187
-188 29
-188 30
-29 -30 188
-189 184
-189 -187
-184 187 189
-190 -184
-190 187
184 -187 190
-191 -189
-191 -190
189 190 191
-192 -184
-192 -187
184 187 192
-193 -188
-193 -192
188 192 193
-194 -30
-194 31
30 -31 194
-195 30
-195 -31
-30 31 195
-196 -194
-196 -195
194 195 196
-197 30
-197 31
-30 -31 197
-198 193
-198 -196
-193 196 198
-199 -193
-199 196
193 -196 199
-200 -198
-200 -199
198 199 200
-201 -193
-201 -196
193 196 201
-202 -197
-202 -201
197 201 202
-203 -31
-203 32
31 -32 203
-204 31
-204 -32
-31 32 204
-205 -203
-205 -204
203 204 205
-206 31
-206 32
-31 -32 206
-207 202
-207 -205
-202 205 207
-208 -202
-208 205
202 -205 208
-209 -207
-209 -208
207 208 209
-210 -202
-210 -205
202 205 210
-211 -206
-211 -210
206 210 211
-212 -32
-212 33
32 -33 212
-213 32
-213 -33
-32 33 213
-214 -212
-214 -213
212 213 214
-215 32
-215 33
-32 -33 215
-216 211
-216 -214
-211 214 216
-217 -211
-217 214
211 -214 217
-218 -216
-218 -217
216 217 218
-219 -211
-219 -214
211 214 219
-220 -215
-220 -219
215 219 220
-221 -33
-221 34
33 -34 221
-222 33
-222 -34
-33 34 222
-223 -221
-223 -222
221 222 223
-224 33
-224 34
-33 -34 224
-225 220
-225 -223
-220 223 225
-226 -220
-226 223
220 -223 226
-227 -225
-227 -226
225 226 227
-228 -220
-228 -223
220 223 228
-229 -224
-229 -228
224 228 229
-230 -34
-230 35
34 -35 230
-231 34
-231 -35
-34 35 231
-232 -230
-232 -231
230 231 232
-233 34
-233 35
-34 -35 233
-234 229
-234 -232
-229 232 234
-235 -229
-235 232
229 -232 235
-236 -234
-236 -235
234 235 236
-237 -229
-237 -232
229 232 237
-238 -233
-238 -237
233 237 238
-239 -35
-239 36
35 -36 239
-240 35
-240 -36
-35 36 240
-241 -239
-241 -240
239 240 241
-242 35
-242 36
-35 -36 242
-243 238
-243 -241
-238 241 243
-244 -238
-244 241
238 -241 244
-245 -243
-245 -244
243 244 245
-246 -238
-246 -241
238 241 246
-247 -242
-247 -246
242 246 247
-248 -36
-248 37
36 -37 248
-249 36
-249 -37
-36 37 249
-250 -248
-250 -249
248 249 250
-251 36
-251 37
-36 -37 251
-252 247
-252 -250
-247 250 252
-253 -247
-253 250
247 -250 253
-254 -252
-254 -253
252 253 254
-255 -247
-255 -250
247 250 255
-256 -251
-256 -255
251 255 256
-257 -37
-257 38
37 -38 257
-258 37
-258 -38
-37 38 258
-259 -257
-259 -258
257 258 259
-260 37
-260 38
-37 -38 260
-261 256
-261 -259
-256 259 261
-262 -256
-262 259
256 -259 262
-263 -261
-263 -262
261 262 263
-264 -256
-264 -259
256 259 264
-265 -260
-265 -264
260 264 265
-266 -38
-266 39
38 -39 266
-267 38
-267 -39
-38 39 267
-268 -266
-268 -267
266 267 268
-269 38
-269 39
-38 -39 269
-270 265
-270 -268
-265 268 270
-271 -265
-271 268
265 -268 271
-272 -270
-272 -271
270 271 272
-273 -265
-273 -268
265 268 273
-274 -269
-274 -273
269 273 274
-275 -39
-275 40
39 -40 275
-276 39
-276 -40
-39 40 276
-277 -275
-277 -276
275 276 277
-278 39
-278 40
-39 -40 278
-279 274
-279 -277
-274 277 279
-280 -274
-280 277
274 -277 280
-281 -279
-281 -280
279 280 281
-282 -274
-282 -277
274 277 282
-283 -278
-283 -282
278 282 283
-284 -40
-284 41
40 -41 284
-285 40
-285 -41
-40 41 285
-286 -284
-286 -285
284 285 286
-287 40
-287 41
-40 -41 287
-288 283
-288 -286
-283 286 288
-289 -283
-289 286
283 -286 289
-290 -288
-290 -289
288 289 290
-291 -283
-291 -286
283 286 291
-292 -287
-292 -291
287 291 292
-293 -41
-293 42
41 -42 293
-294 41
-294 -42
-41 42 294
-295 -293
-295 -294
293 294 295
-296 41
-296 42
-41 -42 296
-297 292
-297 -295
-292 295 297
-298 -292
-298 295
292 -295 298
-299 -297
-299 -298
297 298 299
-300 -292
-300 -295
292 295 300
-301 -296
-301 -300
296 300 301
-302 16
-302 -74
-16 74 302
-303 -16
-303 18
16 -18 303
-304 -302
-304 -303
302 303 304
-305 16
-305 -83
-16 83 305
-306 -16
-306 19
16 -19 306
-307 -305
-307 -306
305 306 307
-308 16
-308 -92
-16 92 308
-309 -16
-309 20
16 -20 309
-310 -308
-310 -309
308 309 310
-311 16
-311 -101
-16 101 311
-312 -16
-312 21
16 -21 312
-313 -311
-313 -312
311 312 313
-314 16
-314 -110
-16 110 314
-315 -16
-315 22
16 -22 315
-316 -314
-316 -315
314 315 316
-317 16
-317 -119
-16 119 317
-318 -16
-318 23
16 -23 318
-319 -317
-319 -318
317 318 319
-320 16
-320 -128
-16 128 320
-321 -16
-321 24
16 -24 321
-322 -320
-322 -321
320 321 322
-323 16
-323 -137
-16 137 323
-324 -16
-324 25
16 -25 324
-325 -323
-325 -324
323 324 325
-326 16
-326 -146
-16 146 326
-327 -16
-327 26
16 -26 327
-328 -326
-328 -327
326 327 328
-329 16
-329 -155
-16 155 329
-330 -16
-330 27
16 -27 330
-331 -329
-331 -330
329 330 331
-332 16
-332 -164
-16 164 332
-333 -16
-333 28
16 -28 333
-334 -332
-334 -333
332 333 334
-335 16
-335 -173
-16 173 335
-336 -16
-336 29
16 -29 336
-337 -335
-337 -336
335 336 337
-338 16
-338 -182
-16 182 338
-339 -16
-339 30
16 -30 339
-340 -338
-340 -339
338 339 340
-341 16
-341 -191
-16 191 341
-342 -16
-342 31
16 -31 342
-343 -341
-343 -342
341 342 343
-344 16
-344 -200
-16 200 344
-345 -16
-345 32
16 -32 345
-346 -344
-346 -345
344 345 346
-347 16
-347 -209
-16 209 347
-348 -16
-348 33
16 -33 348
-349 -347
-349 -348
347 348 349
-350 16
-350 -218
-16 218 350
-351 -16
-351 34
16 -34 351
-352 -350
-352 -351
350 351 352
-353 16
-353 -227
-16 227 353
-354 -16
-354 35
16 -35 354
-355 -353
-355 -354
353 354 355
-356 16
-356 -236
-16 236 356
-357 -16
-357 36
16 -36 357
-358 -356
-358 -357
356 357 358
-359 16
-359 -245
-16 245 359
-360 -16
-360 37
16 -37 360
-361 -359
-361 -360
359 360 361
-362 16
-362 -254
-16 254 362
-363 -16
-363 38
16 -38 363
-364 -362
-364 -363
362 363 364
-365 16
-365 -263
-16 263 365
-366 -16
-366 39
16 -39 366
-367 -365
-367 -366
365 366 367
-368 16
-368 -272
-16 272 368
-369 -16
-369 40
16 -40 369
-370 -368
-370 -369
368 369 370
-371 16
-371 -281
-16 281 371
-372 -16
-372 41
16 -41 372
-373 -371
-373 -372
371 372 373
-374 16
-374 -290
-16 290 374
-375 -16
-375 42
16 -42 375
-376 -374
-376 -375
374 375 376
-377 16
-377 -299
-16 299 377
-378 1
-378 67
-1 -67 378
-379 -67
-379 68
67 -68 379
-380 -378
-380 -379
378 379 380
-381 2
-381 67
-2 -67 381
-382 -67
-382 -304
67 304 382
-383 -381
-383 -382
381 382 383
-384 3
-384 67
-3 -67 384
-385 -67
-385 -307
67 307 385
-386 -384
-386 -385
384 385 386
-387 4
-387 67
-4 -67 387
-388 -67
-388 -310
67 310 388
-389 -387
-389 -388
387 388 389
-390 5
-390 67
-5 -67 390
-391 -67
-391 -313
67 313 391
-392 -390
-392 -391
390 391 392
-393 6
-393 67
-6 -67 393
-394 -67
-394 -316
67 316 394
-395 -393
-395 -394
393 394 395
-396 7
-396 67
-7 -67 396
-397 -67
-397 -319
67 319 397
-398 -396
-398 -397
396 397 398
-399 8
-399 67
-8 -67 399
-400 -67
-400 -322
67 322 400
-401 -399
-401 -400
399 400 401
-402 9
-402 67
-9 -67 402
-403 -67
-403 -325
67 325 403
-404 -402
-404 -403
402 403 404
-405 10
-405 67
-10 -67 405
-406 -67
-406 -328
67 328 406
-407 -405
-407 -406
405 406 407
-408 11
-408 67
-11 -67 408
-409 -67
-409 -331
67 331 409
-410 -408
-410 -409
408 409 410
-411 12
-411 67
-12 -67 411
-412 -67
-412 -334
67 334 412
-413 -411
-413 -412
411 412 413
-414 13
-414 67
-13 -67 414
-415 -67
-415 -337
67 337 415
-416 -414
-416 -415
414 415 416
-417 14
-417 67
-14 -67 417
-418 -67
-418 -340
67 340 418
-419 -417
-419 -418
417 418 419
-420 15
-420 67
-15 -67 420
-421 -67
-421 -343
67 343 421
-422 -420
-422 -421
420 421 422
-423 -67
-423 -346
67 346 423
-424 -67
-424 -349
67 349 424
-425 -67
-425 -352
67 352 425
-426 -67
-426 -355
67 355 426
-427 -67
-427 -358
67 358 427
-428 -67
-428 -361
67 361 428
-429 -67
-429 -364
67 364 429
-430 -67
-430 -367
67 367 430
-431 -67
-431 -370
67 370 431
-432 -67
-432 -373
67 373 432
-433 -67
-433 -376
67 376 433
-434 -67
-434 377
67 -377 434
-435 -42
-435 301
42 -301 435
-436 16
-436 -435
-16 435 436
436
